p cnf 1548 2448
-1  -2 0 
1 2 0 
-2 3 0 
2  -3 0 
-3 -329 4 0 
-3 329 -4 0 
3 -330 4 0 
3 330 -4 0 
-4  -5 0 
4 5 0 
-5 -333 6 0 
-5 333 -6 0 
5 -334 6 0 
5 334 -6 0 
-6  -7 0 
6 7 0 
-7  -8 0 
7 8 0 
-8 -339 9 0 
-8 339 -9 0 
8 -340 9 0 
8 340 -9 0 
-9 10 0 
9  -10 0 
-10 -343 11 0 
-10 343 -11 0 
10 -344 11 0 
10 344 -11 0 
-11 -345 12 0 
-11 345 -12 0 
11 -346 12 0 
11 346 -12 0 
-12 -347 13 0 
-12 347 -13 0 
12 -348 13 0 
12 348 -13 0 
-13  -14 0 
13 14 0 
-14 15 0 
14  -15 0 
-15 16 0 
15  -16 0 
-16  -17 0 
16 17 0 
-17  -18 0 
17 18 0 
-1 19 0 
1  -19 0 
-19 -2  -20 0 
-19 2  -20 0 
19 -2  -20 0 
19 2 20 0 
-20 -3 21 0 
-20 3  -21 0 
20 -3 21 0 
20 3  -21 0 
-21 -4  -22 0 
-21 4  -22 0 
21 -4 22 0 
21 4  -22 0 
-22 -5  -23 0 
-22 5 23 0 
22 -5 23 0 
22 5  -23 0 
-23 -6 24 0 
-23 6  -24 0 
23 -6  -24 0 
23 6  -24 0 
-24 -7 -381 25 0 
-24 -7 381 -25 0 
-24 7 -382 25 0 
-24 7 382 -25 0 
24 -7 -383 25 0 
24 -7 383 -25 0 
24 7 -384 25 0 
24 7 384 -25 0 
-25 -8 26 0 
-25 8 26 0 
25 -8  -26 0 
25 8 26 0 
-26 -9 -389 27 0 
-26 -9 389 -27 0 
-26 9 -390 27 0 
-26 9 390 -27 0 
26 -9 -391 27 0 
26 -9 391 -27 0 
26 9 -392 27 0 
26 9 392 -27 0 
-27 -10 28 0 
-27 10  -28 0 
27 -10 28 0 
27 10  -28 0 
-28 -11  -29 0 
-28 11 29 0 
28 -11 29 0 
28 11  -29 0 
-29 -12  -30 0 
-29 12  -30 0 
29 -12 30 0 
29 12  -30 0 
-30 -13 -405 31 0 
-30 -13 405 -31 0 
-30 13 -406 31 0 
-30 13 406 -31 0 
30 -13 -407 31 0 
30 -13 407 -31 0 
30 13 -408 31 0 
30 13 408 -31 0 
-31 -14  -32 0 
-31 14 32 0 
31 -14 32 0 
31 14  -32 0 
-32 -15 33 0 
-32 15  -33 0 
32 -15  -33 0 
32 15  -33 0 
-33 -16  -34 0 
-33 16 34 0 
33 -16 34 0 
33 16 34 0 
-34 -17 35 0 
-34 17 35 0 
34 -17 35 0 
34 17  -35 0 
-35 -18 -425 36 0 
-35 -18 425 -36 0 
-35 18 -426 36 0 
-35 18 426 -36 0 
35 -18 -427 36 0 
35 -18 427 -36 0 
35 18 -428 36 0 
35 18 428 -36 0 
-19 -429 37 0 
-19 429 -37 0 
19 -430 37 0 
19 430 -37 0 
-37 -20  -38 0 
-37 20  -38 0 
37 -20 38 0 
37 20  -38 0 
-38 -21  -39 0 
-38 21 39 0 
38 -21 39 0 
38 21 39 0 
-39 -22 40 0 
-39 22  -40 0 
39 -22 40 0 
39 22  -40 0 
-40 -23 41 0 
-40 23  -41 0 
40 -23 41 0 
40 23  -41 0 
-41 -24 -447 42 0 
-41 -24 447 -42 0 
-41 24 -448 42 0 
-41 24 448 -42 0 
41 -24 -449 42 0 
41 -24 449 -42 0 
41 24 -450 42 0 
41 24 450 -42 0 
-42 -25 43 0 
-42 25  -43 0 
42 -25  -43 0 
42 25 43 0 
-43 -26  -44 0 
-43 26  -44 0 
43 -26 44 0 
43 26  -44 0 
-44 -27 -459 45 0 
-44 -27 459 -45 0 
-44 27 -460 45 0 
-44 27 460 -45 0 
44 -27 -461 45 0 
44 -27 461 -45 0 
44 27 -462 45 0 
44 27 462 -45 0 
-45 -28 46 0 
-45 28 46 0 
45 -28  -46 0 
45 28  -46 0 
-46 -29 47 0 
-46 29 47 0 
46 -29 47 0 
46 29  -47 0 
-47 -30 -471 48 0 
-47 -30 471 -48 0 
-47 30 -472 48 0 
-47 30 472 -48 0 
47 -30 -473 48 0 
47 -30 473 -48 0 
47 30 -474 48 0 
47 30 474 -48 0 
-48 -31 -475 49 0 
-48 -31 475 -49 0 
-48 31 -476 49 0 
-48 31 476 -49 0 
48 -31 -477 49 0 
48 -31 477 -49 0 
48 31 -478 49 0 
48 31 478 -49 0 
-49 -32 50 0 
-49 32 50 0 
49 -32 50 0 
49 32  -50 0 
-50 -33 51 0 
-50 33 51 0 
50 -33 51 0 
50 33  -51 0 
-51 -34 52 0 
-51 34 52 0 
51 -34  -52 0 
51 34 52 0 
-52 -35 53 0 
-52 35  -53 0 
52 -35 53 0 
52 35 53 0 
-53 -36 54 0 
-53 36 54 0 
53 -36 54 0 
53 36  -54 0 
-37 55 0 
37  -55 0 
-55 -38 -501 56 0 
-55 -38 501 -56 0 
-55 38 -502 56 0 
-55 38 502 -56 0 
55 -38 -503 56 0 
55 -38 503 -56 0 
55 38 -504 56 0 
55 38 504 -56 0 
-56 -39  -57 0 
-56 39 57 0 
56 -39  -57 0 
56 39  -57 0 
-57 -40 -509 58 0 
-57 -40 509 -58 0 
-57 40 -510 58 0 
-57 40 510 -58 0 
57 -40 -511 58 0 
57 -40 511 -58 0 
57 40 -512 58 0 
57 40 512 -58 0 
-58 -41  -59 0 
-58 41  -59 0 
58 -41 59 0 
58 41  -59 0 
-59 -42  -60 0 
-59 42 60 0 
59 -42 60 0 
59 42 60 0 
-60 -43  -61 0 
-60 43  -61 0 
60 -43 61 0 
60 43  -61 0 
-61 -44  -62 0 
-61 44 62 0 
61 -44  -62 0 
61 44 62 0 
-62 -45 -529 63 0 
-62 -45 529 -63 0 
-62 45 -530 63 0 
-62 45 530 -63 0 
62 -45 -531 63 0 
62 -45 531 -63 0 
62 45 -532 63 0 
62 45 532 -63 0 
-63 -46  -64 0 
-63 46 64 0 
63 -46  -64 0 
63 46  -64 0 
-64 -47 65 0 
-64 47  -65 0 
64 -47  -65 0 
64 47  -65 0 
-65 -48  -66 0 
-65 48  -66 0 
65 -48 66 0 
65 48 66 0 
-66 -49 -545 67 0 
-66 -49 545 -67 0 
-66 49 -546 67 0 
-66 49 546 -67 0 
66 -49 -547 67 0 
66 -49 547 -67 0 
66 49 -548 67 0 
66 49 548 -67 0 
-67 -50  -68 0 
-67 50  -68 0 
67 -50  -68 0 
67 50 68 0 
-68 -51 -553 69 0 
-68 -51 553 -69 0 
-68 51 -554 69 0 
-68 51 554 -69 0 
68 -51 -555 69 0 
68 -51 555 -69 0 
68 51 -556 69 0 
68 51 556 -69 0 
-69 -52  -70 0 
-69 52  -70 0 
69 -52  -70 0 
69 52 70 0 
-70 -53  -71 0 
-70 53 71 0 
70 -53 71 0 
70 53 71 0 
-71 -54 -565 72 0 
-71 -54 565 -72 0 
-71 54 -566 72 0 
-71 54 566 -72 0 
71 -54 -567 72 0 
71 -54 567 -72 0 
71 54 -568 72 0 
71 54 568 -72 0 
-55  -73 0 
55 73 0 
-73 -56  -74 0 
-73 56 74 0 
73 -56 74 0 
73 56  -74 0 
-74 -57 75 0 
-74 57  -75 0 
74 -57 75 0 
74 57 75 0 
-75 -58 -579 76 0 
-75 -58 579 -76 0 
-75 58 -580 76 0 
-75 58 580 -76 0 
75 -58 -581 76 0 
75 -58 581 -76 0 
75 58 -582 76 0 
75 58 582 -76 0 
-76 -59 -583 77 0 
-76 -59 583 -77 0 
-76 59 -584 77 0 
-76 59 584 -77 0 
76 -59 -585 77 0 
76 -59 585 -77 0 
76 59 -586 77 0 
76 59 586 -77 0 
-77 -60 78 0 
-77 60 78 0 
77 -60  -78 0 
77 60  -78 0 
-78 -61 79 0 
-78 61 79 0 
78 -61  -79 0 
78 61 79 0 
-79 -62 80 0 
-79 62 80 0 
79 -62  -80 0 
79 62  -80 0 
-80 -63  -81 0 
-80 63  -81 0 
80 -63  -81 0 
80 63 81 0 
-81 -64 82 0 
-81 64  -82 0 
81 -64 82 0 
81 64 82 0 
-82 -65  -83 0 
-82 65  -83 0 
82 -65 83 0 
82 65 83 0 
-83 -66 84 0 
-83 66 84 0 
83 -66  -84 0 
83 66 84 0 
-84 -67 -615 85 0 
-84 -67 615 -85 0 
-84 67 -616 85 0 
-84 67 616 -85 0 
84 -67 -617 85 0 
84 -67 617 -85 0 
84 67 -618 85 0 
84 67 618 -85 0 
-85 -68  -86 0 
-85 68  -86 0 
85 -68  -86 0 
85 68 86 0 
-86 -69  -87 0 
-86 69 87 0 
86 -69 87 0 
86 69 87 0 
-87 -70  -88 0 
-87 70  -88 0 
87 -70 88 0 
87 70 88 0 
-88 -71 -631 89 0 
-88 -71 631 -89 0 
-88 71 -632 89 0 
-88 71 632 -89 0 
88 -71 -633 89 0 
88 -71 633 -89 0 
88 71 -634 89 0 
88 71 634 -89 0 
-89 -72  -90 0 
-89 72 90 0 
89 -72 90 0 
89 72 90 0 
-73  -91 0 
73 91 0 
-91 -74 92 0 
-91 74  -92 0 
91 -74  -92 0 
91 74  -92 0 
-92 -75  -93 0 
-92 75 93 0 
92 -75  -93 0 
92 75 93 0 
-93 -76 -649 94 0 
-93 -76 649 -94 0 
-93 76 -650 94 0 
-93 76 650 -94 0 
93 -76 -651 94 0 
93 -76 651 -94 0 
93 76 -652 94 0 
93 76 652 -94 0 
-94 -77  -95 0 
-94 77  -95 0 
94 -77 95 0 
94 77 95 0 
-95 -78 96 0 
-95 78  -96 0 
95 -78  -96 0 
95 78  -96 0 
-96 -79 97 0 
-96 79 97 0 
96 -79 97 0 
96 79  -97 0 
-97 -80 98 0 
-97 80 98 0 
97 -80  -98 0 
97 80  -98 0 
-98 -81  -99 0 
-98 81 99 0 
98 -81 99 0 
98 81 99 0 
-99 -82  -100 0 
-99 82 100 0 
99 -82  -100 0 
99 82 100 0 
-100 -83  -101 0 
-100 83 101 0 
100 -83 101 0 
100 83  -101 0 
-101 -84 102 0 
-101 84  -102 0 
101 -84 102 0 
101 84 102 0 
-102 -85 103 0 
-102 85  -103 0 
102 -85  -103 0 
102 85  -103 0 
-103 -86  -104 0 
-103 86  -104 0 
103 -86 104 0 
103 86  -104 0 
-104 -87 105 0 
-104 87  -105 0 
104 -87 105 0 
104 87  -105 0 
-105 -88 106 0 
-105 88 106 0 
105 -88  -106 0 
105 88  -106 0 
-106 -89 -701 107 0 
-106 -89 701 -107 0 
-106 89 -702 107 0 
-106 89 702 -107 0 
106 -89 -703 107 0 
106 -89 703 -107 0 
106 89 -704 107 0 
106 89 704 -107 0 
-107 -90 108 0 
-107 90 108 0 
107 -90  -108 0 
107 90  -108 0 
-91 -709 109 0 
-91 709 -109 0 
91 -710 109 0 
91 710 -109 0 
-109 -92  -110 0 
-109 92  -110 0 
109 -92 110 0 
109 92  -110 0 
-110 -93  -111 0 
-110 93  -111 0 
110 -93  -111 0 
110 93 111 0 
-111 -94 112 0 
-111 94  -112 0 
111 -94  -112 0 
111 94 112 0 
-112 -95 -723 113 0 
-112 -95 723 -113 0 
-112 95 -724 113 0 
-112 95 724 -113 0 
112 -95 -725 113 0 
112 -95 725 -113 0 
112 95 -726 113 0 
112 95 726 -113 0 
-113 -96 -727 114 0 
-113 -96 727 -114 0 
-113 96 -728 114 0 
-113 96 728 -114 0 
113 -96 -729 114 0 
113 -96 729 -114 0 
113 96 -730 114 0 
113 96 730 -114 0 
-114 -97  -115 0 
-114 97 115 0 
114 -97  -115 0 
114 97  -115 0 
-115 -98 116 0 
-115 98 116 0 
115 -98  -116 0 
115 98  -116 0 
-116 -99  -117 0 
-116 99 117 0 
116 -99  -117 0 
116 99  -117 0 
-117 -100  -118 0 
-117 100 118 0 
117 -100  -118 0 
117 100  -118 0 
-118 -101 119 0 
-118 101  -119 0 
118 -101 119 0 
118 101  -119 0 
-119 -102  -120 0 
-119 102 120 0 
119 -102 120 0 
119 102 120 0 
-120 -103 -755 121 0 
-120 -103 755 -121 0 
-120 103 -756 121 0 
-120 103 756 -121 0 
120 -103 -757 121 0 
120 -103 757 -121 0 
120 103 -758 121 0 
120 103 758 -121 0 
-121 -104 -759 122 0 
-121 -104 759 -122 0 
-121 104 -760 122 0 
-121 104 760 -122 0 
121 -104 -761 122 0 
121 -104 761 -122 0 
121 104 -762 122 0 
121 104 762 -122 0 
-122 -105 -763 123 0 
-122 -105 763 -123 0 
-122 105 -764 123 0 
-122 105 764 -123 0 
122 -105 -765 123 0 
122 -105 765 -123 0 
122 105 -766 123 0 
122 105 766 -123 0 
-123 -106 124 0 
-123 106  -124 0 
123 -106 124 0 
123 106  -124 0 
-124 -107 125 0 
-124 107 125 0 
124 -107 125 0 
124 107  -125 0 
-125 -108  -126 0 
-125 108  -126 0 
125 -108  -126 0 
125 108 126 0 
-109  -127 0 
109 127 0 
-127 -110  -128 0 
-127 110  -128 0 
127 -110  -128 0 
127 110 128 0 
-128 -111 129 0 
-128 111 129 0 
128 -111 129 0 
128 111  -129 0 
-129 -112  -130 0 
-129 112  -130 0 
129 -112  -130 0 
129 112 130 0 
-130 -113  -131 0 
-130 113 131 0 
130 -113 131 0 
130 113 131 0 
-131 -114  -132 0 
-131 114 132 0 
131 -114 132 0 
131 114 132 0 
-132 -115 133 0 
-132 115 133 0 
132 -115 133 0 
132 115  -133 0 
-133 -116  -134 0 
-133 116 134 0 
133 -116 134 0 
133 116  -134 0 
-134 -117 -809 135 0 
-134 -117 809 -135 0 
-134 117 -810 135 0 
-134 117 810 -135 0 
134 -117 -811 135 0 
134 -117 811 -135 0 
134 117 -812 135 0 
134 117 812 -135 0 
-135 -118 136 0 
-135 118  -136 0 
135 -118  -136 0 
135 118 136 0 
-136 -119 137 0 
-136 119 137 0 
136 -119 137 0 
136 119  -137 0 
-137 -120  -138 0 
-137 120 138 0 
137 -120 138 0 
137 120 138 0 
-138 -121 139 0 
-138 121 139 0 
138 -121 139 0 
138 121  -139 0 
-139 -122 -829 140 0 
-139 -122 829 -140 0 
-139 122 -830 140 0 
-139 122 830 -140 0 
139 -122 -831 140 0 
139 -122 831 -140 0 
139 122 -832 140 0 
139 122 832 -140 0 
-140 -123 -833 141 0 
-140 -123 833 -141 0 
-140 123 -834 141 0 
-140 123 834 -141 0 
140 -123 -835 141 0 
140 -123 835 -141 0 
140 123 -836 141 0 
140 123 836 -141 0 
-141 -124  -142 0 
-141 124 142 0 
141 -124  -142 0 
141 124 142 0 
-142 -125  -143 0 
-142 125  -143 0 
142 -125  -143 0 
142 125 143 0 
-143 -126 -845 144 0 
-143 -126 845 -144 0 
-143 126 -846 144 0 
-143 126 846 -144 0 
143 -126 -847 144 0 
143 -126 847 -144 0 
143 126 -848 144 0 
143 126 848 -144 0 
-127 -849 145 0 
-127 849 -145 0 
127 -850 145 0 
127 850 -145 0 
-145 -128  -146 0 
-145 128 146 0 
145 -128 146 0 
145 128  -146 0 
-146 -129  -147 0 
-146 129  -147 0 
146 -129 147 0 
146 129 147 0 
-147 -130 148 0 
-147 130 148 0 
147 -130  -148 0 
147 130  -148 0 
-148 -131  -149 0 
-148 131 149 0 
148 -131  -149 0 
148 131  -149 0 
-149 -132  -150 0 
-149 132  -150 0 
149 -132 150 0 
149 132 150 0 
-150 -133 151 0 
-150 133  -151 0 
150 -133  -151 0 
150 133  -151 0 
-151 -134  -152 0 
-151 134 152 0 
151 -134 152 0 
151 134  -152 0 
-152 -135 153 0 
-152 135  -153 0 
152 -135 153 0 
152 135  -153 0 
-153 -136  -154 0 
-153 136 154 0 
153 -136  -154 0 
153 136 154 0 
-154 -137 155 0 
-154 137 155 0 
154 -137  -155 0 
154 137 155 0 
-155 -138 156 0 
-155 138  -156 0 
155 -138  -156 0 
155 138 156 0 
-156 -139 157 0 
-156 139  -157 0 
156 -139 157 0 
156 139  -157 0 
-157 -140 -899 158 0 
-157 -140 899 -158 0 
-157 140 -900 158 0 
-157 140 900 -158 0 
157 -140 -901 158 0 
157 -140 901 -158 0 
157 140 -902 158 0 
157 140 902 -158 0 
-158 -141 159 0 
-158 141 159 0 
158 -141  -159 0 
158 141  -159 0 
-159 -142 -907 160 0 
-159 -142 907 -160 0 
-159 142 -908 160 0 
-159 142 908 -160 0 
159 -142 -909 160 0 
159 -142 909 -160 0 
159 142 -910 160 0 
159 142 910 -160 0 
-160 -143  -161 0 
-160 143 161 0 
160 -143 161 0 
160 143  -161 0 
-161 -144 162 0 
-161 144  -162 0 
161 -144 162 0 
161 144 162 0 
-145 -919 163 0 
-145 919 -163 0 
145 -920 163 0 
145 920 -163 0 
-163 -146  -164 0 
-163 146 164 0 
163 -146 164 0 
163 146 164 0 
-164 -147 165 0 
-164 147 165 0 
164 -147  -165 0 
164 147  -165 0 
-165 -148  -166 0 
-165 148  -166 0 
165 -148 166 0 
165 148  -166 0 
-166 -149 167 0 
-166 149  -167 0 
166 -149 167 0 
166 149 167 0 
-167 -150 168 0 
-167 150  -168 0 
167 -150  -168 0 
167 150  -168 0 
-168 -151 -941 169 0 
-168 -151 941 -169 0 
-168 151 -942 169 0 
-168 151 942 -169 0 
168 -151 -943 169 0 
168 -151 943 -169 0 
168 151 -944 169 0 
168 151 944 -169 0 
-169 -152  -170 0 
-169 152  -170 0 
169 -152  -170 0 
169 152 170 0 
-170 -153 171 0 
-170 153  -171 0 
170 -153  -171 0 
170 153 171 0 
-171 -154  -172 0 
-171 154  -172 0 
171 -154 172 0 
171 154 172 0 
-172 -155 173 0 
-172 155  -173 0 
172 -155  -173 0 
172 155  -173 0 
-173 -156 -961 174 0 
-173 -156 961 -174 0 
-173 156 -962 174 0 
-173 156 962 -174 0 
173 -156 -963 174 0 
173 -156 963 -174 0 
173 156 -964 174 0 
173 156 964 -174 0 
-174 -157 175 0 
-174 157 175 0 
174 -157  -175 0 
174 157 175 0 
-175 -158 176 0 
-175 158  -176 0 
175 -158  -176 0 
175 158  -176 0 
-176 -159 -973 177 0 
-176 -159 973 -177 0 
-176 159 -974 177 0 
-176 159 974 -177 0 
176 -159 -975 177 0 
176 -159 975 -177 0 
176 159 -976 177 0 
176 159 976 -177 0 
-177 -160 178 0 
-177 160  -178 0 
177 -160 178 0 
177 160 178 0 
-178 -161  -179 0 
-178 161 179 0 
178 -161 179 0 
178 161  -179 0 
-179 -162  -180 0 
-179 162  -180 0 
179 -162 180 0 
179 162 180 0 
-163  -181 0 
163 181 0 
-181 -164 182 0 
-181 164  -182 0 
181 -164 182 0 
181 164  -182 0 
-182 -165  -183 0 
-182 165  -183 0 
182 -165  -183 0 
182 165 183 0 
-183 -166 184 0 
-183 166  -184 0 
183 -166 184 0 
183 166 184 0 
-184 -167  -185 0 
-184 167  -185 0 
184 -167  -185 0 
184 167 185 0 
-185 -168 186 0 
-185 168 186 0 
185 -168  -186 0 
185 168  -186 0 
-186 -169  -187 0 
-186 169  -187 0 
186 -169  -187 0 
186 169 187 0 
-187 -170 -1015 188 0 
-187 -170 1015 -188 0 
-187 170 -1016 188 0 
-187 170 1016 -188 0 
187 -170 -1017 188 0 
187 -170 1017 -188 0 
187 170 -1018 188 0 
187 170 1018 -188 0 
-188 -171  -189 0 
-188 171 189 0 
188 -171 189 0 
188 171  -189 0 
-189 -172  -190 0 
-189 172 190 0 
189 -172  -190 0 
189 172  -190 0 
-190 -173 -1027 191 0 
-190 -173 1027 -191 0 
-190 173 -1028 191 0 
-190 173 1028 -191 0 
190 -173 -1029 191 0 
190 -173 1029 -191 0 
190 173 -1030 191 0 
190 173 1030 -191 0 
-191 -174 192 0 
-191 174 192 0 
191 -174 192 0 
191 174  -192 0 
-192 -175 -1035 193 0 
-192 -175 1035 -193 0 
-192 175 -1036 193 0 
-192 175 1036 -193 0 
192 -175 -1037 193 0 
192 -175 1037 -193 0 
192 175 -1038 193 0 
192 175 1038 -193 0 
-193 -176  -194 0 
-193 176 194 0 
193 -176  -194 0 
193 176 194 0 
-194 -177  -195 0 
-194 177 195 0 
194 -177  -195 0 
194 177 195 0 
-195 -178 196 0 
-195 178  -196 0 
195 -178  -196 0 
195 178 196 0 
-196 -179 -1051 197 0 
-196 -179 1051 -197 0 
-196 179 -1052 197 0 
-196 179 1052 -197 0 
196 -179 -1053 197 0 
196 -179 1053 -197 0 
196 179 -1054 197 0 
196 179 1054 -197 0 
-197 -180 -1055 198 0 
-197 -180 1055 -198 0 
-197 180 -1056 198 0 
-197 180 1056 -198 0 
197 -180 -1057 198 0 
197 -180 1057 -198 0 
197 180 -1058 198 0 
197 180 1058 -198 0 
-181 199 0 
181  -199 0 
-199 -182  -200 0 
-199 182  -200 0 
199 -182 200 0 
199 182  -200 0 
-200 -183  -201 0 
-200 183 201 0 
200 -183 201 0 
200 183 201 0 
-201 -184 -1069 202 0 
-201 -184 1069 -202 0 
-201 184 -1070 202 0 
-201 184 1070 -202 0 
201 -184 -1071 202 0 
201 -184 1071 -202 0 
201 184 -1072 202 0 
201 184 1072 -202 0 
-202 -185 203 0 
-202 185  -203 0 
202 -185 203 0 
202 185 203 0 
-203 -186 204 0 
-203 186  -204 0 
203 -186  -204 0 
203 186  -204 0 
-204 -187  -205 0 
-204 187 205 0 
204 -187  -205 0 
204 187  -205 0 
-205 -188 206 0 
-205 188  -206 0 
205 -188 206 0 
205 188  -206 0 
-206 -189 207 0 
-206 189  -207 0 
206 -189  -207 0 
206 189  -207 0 
-207 -190 -1093 208 0 
-207 -190 1093 -208 0 
-207 190 -1094 208 0 
-207 190 1094 -208 0 
207 -190 -1095 208 0 
207 -190 1095 -208 0 
207 190 -1096 208 0 
207 190 1096 -208 0 
-208 -191 -1097 209 0 
-208 -191 1097 -209 0 
-208 191 -1098 209 0 
-208 191 1098 -209 0 
208 -191 -1099 209 0 
208 -191 1099 -209 0 
208 191 -1100 209 0 
208 191 1100 -209 0 
-209 -192 -1101 210 0 
-209 -192 1101 -210 0 
-209 192 -1102 210 0 
-209 192 1102 -210 0 
209 -192 -1103 210 0 
209 -192 1103 -210 0 
209 192 -1104 210 0 
209 192 1104 -210 0 
-210 -193 -1105 211 0 
-210 -193 1105 -211 0 
-210 193 -1106 211 0 
-210 193 1106 -211 0 
210 -193 -1107 211 0 
210 -193 1107 -211 0 
210 193 -1108 211 0 
210 193 1108 -211 0 
-211 -194 212 0 
-211 194 212 0 
211 -194  -212 0 
211 194  -212 0 
-212 -195 213 0 
-212 195 213 0 
212 -195  -213 0 
212 195 213 0 
-213 -196 -1117 214 0 
-213 -196 1117 -214 0 
-213 196 -1118 214 0 
-213 196 1118 -214 0 
213 -196 -1119 214 0 
213 -196 1119 -214 0 
213 196 -1120 214 0 
213 196 1120 -214 0 
-214 -197  -215 0 
-214 197  -215 0 
214 -197  -215 0 
214 197 215 0 
-215 -198 216 0 
-215 198 216 0 
215 -198 216 0 
215 198  -216 0 
-199 217 0 
199  -217 0 
-217 -200 218 0 
-217 200  -218 0 
217 -200 218 0 
217 200  -218 0 
-218 -201  -219 0 
-218 201  -219 0 
218 -201 219 0 
218 201 219 0 
-219 -202 220 0 
-219 202 220 0 
219 -202 220 0 
219 202  -220 0 
-220 -203 221 0 
-220 203  -221 0 
220 -203 221 0 
220 203 221 0 
-221 -204 222 0 
-221 204  -222 0 
221 -204 222 0 
221 204  -222 0 
-222 -205 -1151 223 0 
-222 -205 1151 -223 0 
-222 205 -1152 223 0 
-222 205 1152 -223 0 
222 -205 -1153 223 0 
222 -205 1153 -223 0 
222 205 -1154 223 0 
222 205 1154 -223 0 
-223 -206 -1155 224 0 
-223 -206 1155 -224 0 
-223 206 -1156 224 0 
-223 206 1156 -224 0 
223 -206 -1157 224 0 
223 -206 1157 -224 0 
223 206 -1158 224 0 
223 206 1158 -224 0 
-224 -207 -1159 225 0 
-224 -207 1159 -225 0 
-224 207 -1160 225 0 
-224 207 1160 -225 0 
224 -207 -1161 225 0 
224 -207 1161 -225 0 
224 207 -1162 225 0 
224 207 1162 -225 0 
-225 -208  -226 0 
-225 208  -226 0 
225 -208 226 0 
225 208  -226 0 
-226 -209 227 0 
-226 209 227 0 
226 -209 227 0 
226 209  -227 0 
-227 -210  -228 0 
-227 210  -228 0 
227 -210  -228 0 
227 210 228 0 
-228 -211 229 0 
-228 211  -229 0 
228 -211 229 0 
228 211  -229 0 
-229 -212 230 0 
-229 212  -230 0 
229 -212 230 0 
229 212  -230 0 
-230 -213 231 0 
-230 213  -231 0 
230 -213 231 0 
230 213  -231 0 
-231 -214 -1187 232 0 
-231 -214 1187 -232 0 
-231 214 -1188 232 0 
-231 214 1188 -232 0 
231 -214 -1189 232 0 
231 -214 1189 -232 0 
231 214 -1190 232 0 
231 214 1190 -232 0 
-232 -215 233 0 
-232 215  -233 0 
232 -215  -233 0 
232 215  -233 0 
-233 -216 -1195 234 0 
-233 -216 1195 -234 0 
-233 216 -1196 234 0 
-233 216 1196 -234 0 
233 -216 -1197 234 0 
233 -216 1197 -234 0 
233 216 -1198 234 0 
233 216 1198 -234 0 
-217 235 0 
217  -235 0 
-235 -218  -236 0 
-235 218 236 0 
235 -218  -236 0 
235 218  -236 0 
-236 -219 237 0 
-236 219  -237 0 
236 -219 237 0 
236 219  -237 0 
-237 -220  -238 0 
-237 220  -238 0 
237 -220 238 0 
237 220  -238 0 
-238 -221 -1213 239 0 
-238 -221 1213 -239 0 
-238 221 -1214 239 0 
-238 221 1214 -239 0 
238 -221 -1215 239 0 
238 -221 1215 -239 0 
238 221 -1216 239 0 
238 221 1216 -239 0 
-239 -222 240 0 
-239 222  -240 0 
239 -222 240 0 
239 222 240 0 
-240 -223  -241 0 
-240 223  -241 0 
240 -223  -241 0 
240 223 241 0 
-241 -224  -242 0 
-241 224 242 0 
241 -224 242 0 
241 224  -242 0 
-242 -225  -243 0 
-242 225  -243 0 
242 -225 243 0 
242 225 243 0 
-243 -226 244 0 
-243 226 244 0 
243 -226 244 0 
243 226  -244 0 
-244 -227 245 0 
-244 227  -245 0 
244 -227 245 0 
244 227  -245 0 
-245 -228  -246 0 
-245 228 246 0 
245 -228  -246 0 
245 228 246 0 
-246 -229  -247 0 
-246 229 247 0 
246 -229  -247 0 
246 229  -247 0 
-247 -230 248 0 
-247 230  -248 0 
247 -230  -248 0 
247 230 248 0 
-248 -231 -1253 249 0 
-248 -231 1253 -249 0 
-248 231 -1254 249 0 
-248 231 1254 -249 0 
248 -231 -1255 249 0 
248 -231 1255 -249 0 
248 231 -1256 249 0 
248 231 1256 -249 0 
-249 -232 250 0 
-249 232 250 0 
249 -232  -250 0 
249 232 250 0 
-250 -233 251 0 
-250 233 251 0 
250 -233  -251 0 
250 233 251 0 
-251 -234  -252 0 
-251 234  -252 0 
251 -234 252 0 
251 234 252 0 
-235 -1269 253 0 
-235 1269 -253 0 
235 -1270 253 0 
235 1270 -253 0 
-253 -236  -254 0 
-253 236  -254 0 
253 -236 254 0 
253 236 254 0 
-254 -237 255 0 
-254 237  -255 0 
254 -237 255 0 
254 237  -255 0 
-255 -238 256 0 
-255 238 256 0 
255 -238  -256 0 
255 238  -256 0 
-256 -239  -257 0 
-256 239 257 0 
256 -239 257 0 
256 239 257 0 
-257 -240 258 0 
-257 240  -258 0 
257 -240 258 0 
257 240 258 0 
-258 -241 -1291 259 0 
-258 -241 1291 -259 0 
-258 241 -1292 259 0 
-258 241 1292 -259 0 
258 -241 -1293 259 0 
258 -241 1293 -259 0 
258 241 -1294 259 0 
258 241 1294 -259 0 
-259 -242 260 0 
-259 242 260 0 
259 -242 260 0 
259 242  -260 0 
-260 -243  -261 0 
-260 243  -261 0 
260 -243 261 0 
260 243 261 0 
-261 -244 -1303 262 0 
-261 -244 1303 -262 0 
-261 244 -1304 262 0 
-261 244 1304 -262 0 
261 -244 -1305 262 0 
261 -244 1305 -262 0 
261 244 -1306 262 0 
261 244 1306 -262 0 
-262 -245 -1307 263 0 
-262 -245 1307 -263 0 
-262 245 -1308 263 0 
-262 245 1308 -263 0 
262 -245 -1309 263 0 
262 -245 1309 -263 0 
262 245 -1310 263 0 
262 245 1310 -263 0 
-263 -246 -1311 264 0 
-263 -246 1311 -264 0 
-263 246 -1312 264 0 
-263 246 1312 -264 0 
263 -246 -1313 264 0 
263 -246 1313 -264 0 
263 246 -1314 264 0 
263 246 1314 -264 0 
-264 -247  -265 0 
-264 247  -265 0 
264 -247 265 0 
264 247 265 0 
-265 -248 -1319 266 0 
-265 -248 1319 -266 0 
-265 248 -1320 266 0 
-265 248 1320 -266 0 
265 -248 -1321 266 0 
265 -248 1321 -266 0 
265 248 -1322 266 0 
265 248 1322 -266 0 
-266 -249 267 0 
-266 249 267 0 
266 -249  -267 0 
266 249 267 0 
-267 -250  -268 0 
-267 250  -268 0 
267 -250 268 0 
267 250  -268 0 
-268 -251 269 0 
-268 251  -269 0 
268 -251 269 0 
268 251 269 0 
-269 -252 -1335 270 0 
-269 -252 1335 -270 0 
-269 252 -1336 270 0 
-269 252 1336 -270 0 
269 -252 -1337 270 0 
269 -252 1337 -270 0 
269 252 -1338 270 0 
269 252 1338 -270 0 
-253 -1339 271 0 
-253 1339 -271 0 
253 -1340 271 0 
253 1340 -271 0 
-271 -254 272 0 
-271 254  -272 0 
271 -254  -272 0 
271 254  -272 0 
-272 -255 273 0 
-272 255 273 0 
272 -255  -273 0 
272 255  -273 0 
-273 -256 274 0 
-273 256 274 0 
273 -256  -274 0 
273 256 274 0 
-274 -257  -275 0 
-274 257 275 0 
274 -257 275 0 
274 257  -275 0 
-275 -258  -276 0 
-275 258 276 0 
275 -258 276 0 
275 258 276 0 
-276 -259 -1361 277 0 
-276 -259 1361 -277 0 
-276 259 -1362 277 0 
-276 259 1362 -277 0 
276 -259 -1363 277 0 
276 -259 1363 -277 0 
276 259 -1364 277 0 
276 259 1364 -277 0 
-277 -260 278 0 
-277 260  -278 0 
277 -260  -278 0 
277 260  -278 0 
-278 -261 279 0 
-278 261 279 0 
278 -261  -279 0 
278 261  -279 0 
-279 -262 280 0 
-279 262  -280 0 
279 -262 280 0 
279 262 280 0 
-280 -263 281 0 
-280 263  -281 0 
280 -263  -281 0 
280 263 281 0 
-281 -264 282 0 
-281 264 282 0 
281 -264  -282 0 
281 264  -282 0 
-282 -265  -283 0 
-282 265  -283 0 
282 -265 283 0 
282 265  -283 0 
-283 -266 284 0 
-283 266 284 0 
283 -266 284 0 
283 266  -284 0 
-284 -267 285 0 
-284 267  -285 0 
284 -267  -285 0 
284 267 285 0 
-285 -268  -286 0 
-285 268  -286 0 
285 -268 286 0 
285 268 286 0 
-286 -269  -287 0 
-286 269 287 0 
286 -269 287 0 
286 269  -287 0 
-287 -270  -288 0 
-287 270 288 0 
287 -270 288 0 
287 270  -288 0 
-271 -1409 289 0 
-271 1409 -289 0 
271 -1410 289 0 
271 1410 -289 0 
-289 -272 -1411 290 0 
-289 -272 1411 -290 0 
-289 272 -1412 290 0 
-289 272 1412 -290 0 
289 -272 -1413 290 0 
289 -272 1413 -290 0 
289 272 -1414 290 0 
289 272 1414 -290 0 
-290 -273 291 0 
-290 273 291 0 
290 -273 291 0 
290 273  -291 0 
-291 -274 292 0 
-291 274  -292 0 
291 -274 292 0 
291 274 292 0 
-292 -275  -293 0 
-292 275  -293 0 
292 -275  -293 0 
292 275 293 0 
-293 -276  -294 0 
-293 276 294 0 
293 -276  -294 0 
293 276 294 0 
-294 -277  -295 0 
-294 277 295 0 
294 -277  -295 0 
294 277 295 0 
-295 -278 296 0 
-295 278 296 0 
295 -278 296 0 
295 278  -296 0 
-296 -279  -297 0 
-296 279 297 0 
296 -279  -297 0 
296 279  -297 0 
-297 -280 298 0 
-297 280  -298 0 
297 -280 298 0 
297 280  -298 0 
-298 -281  -299 0 
-298 281  -299 0 
298 -281 299 0 
298 281 299 0 
-299 -282 -1451 300 0 
-299 -282 1451 -300 0 
-299 282 -1452 300 0 
-299 282 1452 -300 0 
299 -282 -1453 300 0 
299 -282 1453 -300 0 
299 282 -1454 300 0 
299 282 1454 -300 0 
-300 -283  -301 0 
-300 283  -301 0 
300 -283 301 0 
300 283 301 0 
-301 -284  -302 0 
-301 284  -302 0 
301 -284 302 0 
301 284 302 0 
-302 -285 303 0 
-302 285 303 0 
302 -285  -303 0 
302 285 303 0 
-303 -286  -304 0 
-303 286  -304 0 
303 -286 304 0 
303 286  -304 0 
-304 -287 -1471 305 0 
-304 -287 1471 -305 0 
-304 287 -1472 305 0 
-304 287 1472 -305 0 
304 -287 -1473 305 0 
304 -287 1473 -305 0 
304 287 -1474 305 0 
304 287 1474 -305 0 
-305 -288 306 0 
-305 288  -306 0 
305 -288  -306 0 
305 288 306 0 
-289 307 0 
289  -307 0 
-307 -290 -1481 308 0 
-307 -290 1481 -308 0 
-307 290 -1482 308 0 
-307 290 1482 -308 0 
307 -290 -1483 308 0 
307 -290 1483 -308 0 
307 290 -1484 308 0 
307 290 1484 -308 0 
-308 -291 309 0 
-308 291  -309 0 
308 -291  -309 0 
308 291 309 0 
-309 -292 310 0 
-309 292 310 0 
309 -292  -310 0 
309 292 310 0 
-310 -293 311 0 
-310 293  -311 0 
310 -293  -311 0 
310 293  -311 0 
-311 -294 -1497 312 0 
-311 -294 1497 -312 0 
-311 294 -1498 312 0 
-311 294 1498 -312 0 
311 -294 -1499 312 0 
311 -294 1499 -312 0 
311 294 -1500 312 0 
311 294 1500 -312 0 
-312 -295 -1501 313 0 
-312 -295 1501 -313 0 
-312 295 -1502 313 0 
-312 295 1502 -313 0 
312 -295 -1503 313 0 
312 -295 1503 -313 0 
312 295 -1504 313 0 
312 295 1504 -313 0 
-313 -296 314 0 
-313 296 314 0 
313 -296  -314 0 
313 296  -314 0 
-314 -297 315 0 
-314 297 315 0 
314 -297  -315 0 
314 297  -315 0 
-315 -298 -1513 316 0 
-315 -298 1513 -316 0 
-315 298 -1514 316 0 
-315 298 1514 -316 0 
315 -298 -1515 316 0 
315 -298 1515 -316 0 
315 298 -1516 316 0 
315 298 1516 -316 0 
-316 -299 317 0 
-316 299 317 0 
316 -299  -317 0 
316 299  -317 0 
-317 -300 -1521 318 0 
-317 -300 1521 -318 0 
-317 300 -1522 318 0 
-317 300 1522 -318 0 
317 -300 -1523 318 0 
317 -300 1523 -318 0 
317 300 -1524 318 0 
317 300 1524 -318 0 
-318 -301  -319 0 
-318 301 319 0 
318 -301 319 0 
318 301 319 0 
-319 -302 -1529 320 0 
-319 -302 1529 -320 0 
-319 302 -1530 320 0 
-319 302 1530 -320 0 
319 -302 -1531 320 0 
319 -302 1531 -320 0 
319 302 -1532 320 0 
319 302 1532 -320 0 
-320 -303 -1533 321 0 
-320 -303 1533 -321 0 
-320 303 -1534 321 0 
-320 303 1534 -321 0 
320 -303 -1535 321 0 
320 -303 1535 -321 0 
320 303 -1536 321 0 
320 303 1536 -321 0 
-321 -304 -1537 322 0 
-321 -304 1537 -322 0 
-321 304 -1538 322 0 
-321 304 1538 -322 0 
321 -304 -1539 322 0 
321 -304 1539 -322 0 
321 304 -1540 322 0 
321 304 1540 -322 0 
-322 -305 -1541 323 0 
-322 -305 1541 -323 0 
-322 305 -1542 323 0 
-322 305 1542 -323 0 
322 -305 -1543 323 0 
322 -305 1543 -323 0 
322 305 -1544 323 0 
322 305 1544 -323 0 
-323 -306  -324 0 
-323 306  -324 0 
323 -306 324 0 
323 306 324 0 

324 0
